* #variable= 15 #constraint= 146 #equal= 1 intsize= 128
* instance_hash=sha256:01a712949a4d2aafe93efb00caf622094b51003a1699ab4e68515cc94919db77 stage=PopulationLowerBound
+1 x1 +1 x2 +1 x3 +1 x4 +1 x5 +1 x6 +1 x7 +1 x8 >= 2 ;
-1 x1 -1 x2 -1 x3 -1 x4 -1 x5 -1 x6 -1 x7 -1 x8 >= -6 ;
+1 x1 = 0 ;
-1 x1 +1 x2 +1 x9 >= 0 ;
+1 x1 +1 x2 -1 x9 >= 0 ;
-1 x1 -1 x2 -1 x9 >= -2 ;
+1 x1 -1 x2 +1 x9 >= 0 ;
+1 x10 -1 x2 +1 x3 >= 0 ;
-1 x10 +1 x2 +1 x3 >= 0 ;
-1 x10 -1 x2 -1 x3 >= -2 ;
+1 x10 +1 x2 -1 x3 >= 0 ;
+1 x11 -1 x3 +1 x4 >= 0 ;
-1 x11 +1 x3 +1 x4 >= 0 ;
-1 x11 -1 x3 -1 x4 >= -2 ;
+1 x11 +1 x3 -1 x4 >= 0 ;
+1 x12 -1 x4 +1 x5 >= 0 ;
-1 x12 +1 x4 +1 x5 >= 0 ;
-1 x12 -1 x4 -1 x5 >= -2 ;
+1 x12 +1 x4 -1 x5 >= 0 ;
+1 x13 -1 x5 +1 x6 >= 0 ;
-1 x13 +1 x5 +1 x6 >= 0 ;
-1 x13 -1 x5 -1 x6 >= -2 ;
+1 x13 +1 x5 -1 x6 >= 0 ;
+1 x14 -1 x6 +1 x7 >= 0 ;
-1 x14 +1 x6 +1 x7 >= 0 ;
-1 x14 -1 x6 -1 x7 >= -2 ;
+1 x14 +1 x6 -1 x7 >= 0 ;
+1 x15 -1 x7 +1 x8 >= 0 ;
-1 x15 +1 x7 +1 x8 >= 0 ;
-1 x15 -1 x7 -1 x8 >= -2 ;
+1 x15 +1 x7 -1 x8 >= 0 ;
+1 x1 -1 x2 -1 x3 +1 x4 +1 x5 +1 x6 +1 x7 +1 x8 >= -1 ;
+1 x1 -1 x2 +1 x3 -1 x4 +1 x5 +1 x6 +1 x7 +1 x8 >= -1 ;
+1 x1 +1 x2 -1 x3 -1 x4 +1 x5 +1 x6 +1 x7 +1 x8 >= -1 ;
+1 x1 -1 x2 -1 x3 -1 x4 +1 x5 +1 x6 +1 x7 +1 x8 >= -2 ;
+1 x1 -1 x2 +1 x3 +1 x4 -1 x5 +1 x6 +1 x7 +1 x8 >= -1 ;
+1 x1 +1 x2 -1 x3 +1 x4 -1 x5 +1 x6 +1 x7 +1 x8 >= -1 ;
+1 x1 -1 x2 -1 x3 +1 x4 -1 x5 +1 x6 +1 x7 +1 x8 >= -2 ;
+1 x1 +1 x2 +1 x3 -1 x4 -1 x5 +1 x6 +1 x7 +1 x8 >= -1 ;
+1 x1 -1 x2 +1 x3 -1 x4 -1 x5 +1 x6 +1 x7 +1 x8 >= -2 ;
+1 x1 +1 x2 -1 x3 -1 x4 -1 x5 +1 x6 +1 x7 +1 x8 >= -2 ;
+1 x1 -1 x2 -1 x3 -1 x4 -1 x5 +1 x6 +1 x7 +1 x8 >= -3 ;
+1 x1 -1 x2 +1 x3 +1 x4 +1 x5 -1 x6 +1 x7 +1 x8 >= -1 ;
+1 x1 +1 x2 -1 x3 +1 x4 +1 x5 -1 x6 +1 x7 +1 x8 >= -1 ;
+1 x1 -1 x2 -1 x3 +1 x4 +1 x5 -1 x6 +1 x7 +1 x8 >= -2 ;
+1 x1 +1 x2 +1 x3 -1 x4 +1 x5 -1 x6 +1 x7 +1 x8 >= -1 ;
+1 x1 -1 x2 +1 x3 -1 x4 +1 x5 -1 x6 +1 x7 +1 x8 >= -2 ;
+1 x1 +1 x2 -1 x3 -1 x4 +1 x5 -1 x6 +1 x7 +1 x8 >= -2 ;
+1 x1 -1 x2 -1 x3 -1 x4 +1 x5 -1 x6 +1 x7 +1 x8 >= -3 ;
+1 x1 +1 x2 +1 x3 +1 x4 -1 x5 -1 x6 +1 x7 +1 x8 >= -1 ;
+1 x1 -1 x2 +1 x3 +1 x4 -1 x5 -1 x6 +1 x7 +1 x8 >= -2 ;
+1 x1 +1 x2 -1 x3 +1 x4 -1 x5 -1 x6 +1 x7 +1 x8 >= -2 ;
+1 x1 -1 x2 -1 x3 +1 x4 -1 x5 -1 x6 +1 x7 +1 x8 >= -3 ;
+1 x1 +1 x2 +1 x3 -1 x4 -1 x5 -1 x6 +1 x7 +1 x8 >= -2 ;
+1 x1 -1 x2 +1 x3 -1 x4 -1 x5 -1 x6 +1 x7 +1 x8 >= -3 ;
+1 x1 +1 x2 -1 x3 -1 x4 -1 x5 -1 x6 +1 x7 +1 x8 >= -3 ;
+1 x1 -1 x2 -1 x3 -1 x4 -1 x5 -1 x6 +1 x7 +1 x8 >= -4 ;
+1 x1 -1 x2 +1 x3 +1 x4 +1 x5 +1 x6 -1 x7 +1 x8 >= -1 ;
+1 x1 +1 x2 -1 x3 +1 x4 +1 x5 +1 x6 -1 x7 +1 x8 >= -1 ;
+1 x1 -1 x2 -1 x3 +1 x4 +1 x5 +1 x6 -1 x7 +1 x8 >= -2 ;
+1 x1 +1 x2 +1 x3 -1 x4 +1 x5 +1 x6 -1 x7 +1 x8 >= -1 ;
+1 x1 -1 x2 +1 x3 -1 x4 +1 x5 +1 x6 -1 x7 +1 x8 >= -2 ;
+1 x1 +1 x2 -1 x3 -1 x4 +1 x5 +1 x6 -1 x7 +1 x8 >= -2 ;
+1 x1 -1 x2 -1 x3 -1 x4 +1 x5 +1 x6 -1 x7 +1 x8 >= -3 ;
+1 x1 +1 x2 +1 x3 +1 x4 -1 x5 +1 x6 -1 x7 +1 x8 >= -1 ;
+1 x1 -1 x2 +1 x3 +1 x4 -1 x5 +1 x6 -1 x7 +1 x8 >= -2 ;
+1 x1 +1 x2 -1 x3 +1 x4 -1 x5 +1 x6 -1 x7 +1 x8 >= -2 ;
+1 x1 -1 x2 -1 x3 +1 x4 -1 x5 +1 x6 -1 x7 +1 x8 >= -3 ;
+1 x1 +1 x2 +1 x3 -1 x4 -1 x5 +1 x6 -1 x7 +1 x8 >= -2 ;
+1 x1 -1 x2 +1 x3 -1 x4 -1 x5 +1 x6 -1 x7 +1 x8 >= -3 ;
+1 x1 +1 x2 -1 x3 -1 x4 -1 x5 +1 x6 -1 x7 +1 x8 >= -3 ;
+1 x1 -1 x2 -1 x3 -1 x4 -1 x5 +1 x6 -1 x7 +1 x8 >= -4 ;
+1 x1 +1 x2 +1 x3 +1 x4 +1 x5 -1 x6 -1 x7 +1 x8 >= -1 ;
+1 x1 -1 x2 +1 x3 +1 x4 +1 x5 -1 x6 -1 x7 +1 x8 >= -2 ;
+1 x1 +1 x2 -1 x3 +1 x4 +1 x5 -1 x6 -1 x7 +1 x8 >= -2 ;
+1 x1 -1 x2 -1 x3 +1 x4 +1 x5 -1 x6 -1 x7 +1 x8 >= -3 ;
+1 x1 +1 x2 +1 x3 -1 x4 +1 x5 -1 x6 -1 x7 +1 x8 >= -2 ;
+1 x1 -1 x2 +1 x3 -1 x4 +1 x5 -1 x6 -1 x7 +1 x8 >= -3 ;
+1 x1 +1 x2 -1 x3 -1 x4 +1 x5 -1 x6 -1 x7 +1 x8 >= -3 ;
+1 x1 -1 x2 -1 x3 -1 x4 +1 x5 -1 x6 -1 x7 +1 x8 >= -4 ;
+1 x1 +1 x2 +1 x3 +1 x4 -1 x5 -1 x6 -1 x7 +1 x8 >= -2 ;
+1 x1 -1 x2 +1 x3 +1 x4 -1 x5 -1 x6 -1 x7 +1 x8 >= -3 ;
+1 x1 +1 x2 -1 x3 +1 x4 -1 x5 -1 x6 -1 x7 +1 x8 >= -3 ;
+1 x1 -1 x2 -1 x3 +1 x4 -1 x5 -1 x6 -1 x7 +1 x8 >= -4 ;
+1 x1 +1 x2 +1 x3 -1 x4 -1 x5 -1 x6 -1 x7 +1 x8 >= -3 ;
+1 x1 -1 x2 +1 x3 -1 x4 -1 x5 -1 x6 -1 x7 +1 x8 >= -4 ;
+1 x1 +1 x2 -1 x3 -1 x4 -1 x5 -1 x6 -1 x7 +1 x8 >= -4 ;
+1 x1 -1 x2 -1 x3 -1 x4 -1 x5 -1 x6 -1 x7 +1 x8 >= -5 ;
+1 x1 -1 x2 +1 x3 +1 x4 +1 x5 +1 x6 +1 x7 -1 x8 >= -1 ;
+1 x1 +1 x2 -1 x3 +1 x4 +1 x5 +1 x6 +1 x7 -1 x8 >= -1 ;
+1 x1 -1 x2 -1 x3 +1 x4 +1 x5 +1 x6 +1 x7 -1 x8 >= -2 ;
+1 x1 +1 x2 +1 x3 -1 x4 +1 x5 +1 x6 +1 x7 -1 x8 >= -1 ;
+1 x1 -1 x2 +1 x3 -1 x4 +1 x5 +1 x6 +1 x7 -1 x8 >= -2 ;
+1 x1 +1 x2 -1 x3 -1 x4 +1 x5 +1 x6 +1 x7 -1 x8 >= -2 ;
+1 x1 -1 x2 -1 x3 -1 x4 +1 x5 +1 x6 +1 x7 -1 x8 >= -3 ;
+1 x1 +1 x2 +1 x3 +1 x4 -1 x5 +1 x6 +1 x7 -1 x8 >= -1 ;
+1 x1 -1 x2 +1 x3 +1 x4 -1 x5 +1 x6 +1 x7 -1 x8 >= -2 ;
+1 x1 +1 x2 -1 x3 +1 x4 -1 x5 +1 x6 +1 x7 -1 x8 >= -2 ;
+1 x1 -1 x2 -1 x3 +1 x4 -1 x5 +1 x6 +1 x7 -1 x8 >= -3 ;
+1 x1 +1 x2 +1 x3 -1 x4 -1 x5 +1 x6 +1 x7 -1 x8 >= -2 ;
+1 x1 -1 x2 +1 x3 -1 x4 -1 x5 +1 x6 +1 x7 -1 x8 >= -3 ;
+1 x1 +1 x2 -1 x3 -1 x4 -1 x5 +1 x6 +1 x7 -1 x8 >= -3 ;
+1 x1 -1 x2 -1 x3 -1 x4 -1 x5 +1 x6 +1 x7 -1 x8 >= -4 ;
+1 x1 +1 x2 +1 x3 +1 x4 +1 x5 -1 x6 +1 x7 -1 x8 >= -1 ;
+1 x1 -1 x2 +1 x3 +1 x4 +1 x5 -1 x6 +1 x7 -1 x8 >= -2 ;
+1 x1 +1 x2 -1 x3 +1 x4 +1 x5 -1 x6 +1 x7 -1 x8 >= -2 ;
+1 x1 -1 x2 -1 x3 +1 x4 +1 x5 -1 x6 +1 x7 -1 x8 >= -3 ;
+1 x1 +1 x2 +1 x3 -1 x4 +1 x5 -1 x6 +1 x7 -1 x8 >= -2 ;
+1 x1 -1 x2 +1 x3 -1 x4 +1 x5 -1 x6 +1 x7 -1 x8 >= -3 ;
+1 x1 +1 x2 -1 x3 -1 x4 +1 x5 -1 x6 +1 x7 -1 x8 >= -3 ;
+1 x1 -1 x2 -1 x3 -1 x4 +1 x5 -1 x6 +1 x7 -1 x8 >= -4 ;
+1 x1 +1 x2 +1 x3 +1 x4 -1 x5 -1 x6 +1 x7 -1 x8 >= -2 ;
+1 x1 -1 x2 +1 x3 +1 x4 -1 x5 -1 x6 +1 x7 -1 x8 >= -3 ;
+1 x1 +1 x2 -1 x3 +1 x4 -1 x5 -1 x6 +1 x7 -1 x8 >= -3 ;
+1 x1 -1 x2 -1 x3 +1 x4 -1 x5 -1 x6 +1 x7 -1 x8 >= -4 ;
+1 x1 +1 x2 +1 x3 -1 x4 -1 x5 -1 x6 +1 x7 -1 x8 >= -3 ;
+1 x1 -1 x2 +1 x3 -1 x4 -1 x5 -1 x6 +1 x7 -1 x8 >= -4 ;
+1 x1 +1 x2 -1 x3 -1 x4 -1 x5 -1 x6 +1 x7 -1 x8 >= -4 ;
+1 x1 -1 x2 -1 x3 -1 x4 -1 x5 -1 x6 +1 x7 -1 x8 >= -5 ;
+1 x1 -1 x2 +1 x3 +1 x4 +1 x5 +1 x6 -1 x7 -1 x8 >= -2 ;
+1 x1 +1 x2 -1 x3 +1 x4 +1 x5 +1 x6 -1 x7 -1 x8 >= -2 ;
+1 x1 -1 x2 -1 x3 +1 x4 +1 x5 +1 x6 -1 x7 -1 x8 >= -3 ;
+1 x1 +1 x2 +1 x3 -1 x4 +1 x5 +1 x6 -1 x7 -1 x8 >= -2 ;
+1 x1 -1 x2 +1 x3 -1 x4 +1 x5 +1 x6 -1 x7 -1 x8 >= -3 ;
+1 x1 +1 x2 -1 x3 -1 x4 +1 x5 +1 x6 -1 x7 -1 x8 >= -3 ;
+1 x1 -1 x2 -1 x3 -1 x4 +1 x5 +1 x6 -1 x7 -1 x8 >= -4 ;
+1 x1 +1 x2 +1 x3 +1 x4 -1 x5 +1 x6 -1 x7 -1 x8 >= -2 ;
+1 x1 -1 x2 +1 x3 +1 x4 -1 x5 +1 x6 -1 x7 -1 x8 >= -3 ;
+1 x1 +1 x2 -1 x3 +1 x4 -1 x5 +1 x6 -1 x7 -1 x8 >= -3 ;
+1 x1 -1 x2 -1 x3 +1 x4 -1 x5 +1 x6 -1 x7 -1 x8 >= -4 ;
+1 x1 +1 x2 +1 x3 -1 x4 -1 x5 +1 x6 -1 x7 -1 x8 >= -3 ;
+1 x1 -1 x2 +1 x3 -1 x4 -1 x5 +1 x6 -1 x7 -1 x8 >= -4 ;
+1 x1 +1 x2 -1 x3 -1 x4 -1 x5 +1 x6 -1 x7 -1 x8 >= -4 ;
+1 x1 -1 x2 -1 x3 -1 x4 -1 x5 +1 x6 -1 x7 -1 x8 >= -5 ;
+1 x1 -1 x2 +1 x3 +1 x4 +1 x5 -1 x6 -1 x7 -1 x8 >= -3 ;
+1 x1 +1 x2 -1 x3 +1 x4 +1 x5 -1 x6 -1 x7 -1 x8 >= -3 ;
+1 x1 -1 x2 -1 x3 +1 x4 +1 x5 -1 x6 -1 x7 -1 x8 >= -4 ;
+1 x1 +1 x2 +1 x3 -1 x4 +1 x5 -1 x6 -1 x7 -1 x8 >= -3 ;
+1 x1 -1 x2 +1 x3 -1 x4 +1 x5 -1 x6 -1 x7 -1 x8 >= -4 ;
+1 x1 +1 x2 -1 x3 -1 x4 +1 x5 -1 x6 -1 x7 -1 x8 >= -4 ;
+1 x1 -1 x2 -1 x3 -1 x4 +1 x5 -1 x6 -1 x7 -1 x8 >= -5 ;
+1 x1 -1 x2 +1 x3 +1 x4 -1 x5 -1 x6 -1 x7 -1 x8 >= -4 ;
+1 x1 +1 x2 -1 x3 +1 x4 -1 x5 -1 x6 -1 x7 -1 x8 >= -4 ;
+1 x1 -1 x2 -1 x3 +1 x4 -1 x5 -1 x6 -1 x7 -1 x8 >= -5 ;
+1 x1 -1 x2 +1 x3 -1 x4 -1 x5 -1 x6 -1 x7 -1 x8 >= -5 ;
+1 x1 >= 2 ;
