* #variable= 123 #constraint= 244 #equal= 37 intsize= 128
* instance_hash=sha256:01a712949a4d2aafe93efb00caf622094b51003a1699ab4e68515cc94919db77 stage=BoundaryLowerBound
+1 x1 +1 x2 +1 x3 +1 x4 +1 x5 +1 x6 +1 x7 +1 x8 >= 2 ;
-1 x1 -1 x2 -1 x3 -1 x4 -1 x5 -1 x6 -1 x7 -1 x8 >= -6 ;
+1 x1 = 0 ;
-1 x1 +1 x2 +1 x9 >= 0 ;
+1 x1 +1 x2 -1 x9 >= 0 ;
-1 x1 -1 x2 -1 x9 >= -2 ;
+1 x1 -1 x2 +1 x9 >= 0 ;
+1 x10 -1 x2 +1 x3 >= 0 ;
-1 x10 +1 x2 +1 x3 >= 0 ;
-1 x10 -1 x2 -1 x3 >= -2 ;
+1 x10 +1 x2 -1 x3 >= 0 ;
+1 x11 -1 x3 +1 x4 >= 0 ;
-1 x11 +1 x3 +1 x4 >= 0 ;
-1 x11 -1 x3 -1 x4 >= -2 ;
+1 x11 +1 x3 -1 x4 >= 0 ;
+1 x12 -1 x4 +1 x5 >= 0 ;
-1 x12 +1 x4 +1 x5 >= 0 ;
-1 x12 -1 x4 -1 x5 >= -2 ;
+1 x12 +1 x4 -1 x5 >= 0 ;
+1 x13 -1 x5 +1 x6 >= 0 ;
-1 x13 +1 x5 +1 x6 >= 0 ;
-1 x13 -1 x5 -1 x6 >= -2 ;
+1 x13 +1 x5 -1 x6 >= 0 ;
+1 x14 -1 x6 +1 x7 >= 0 ;
-1 x14 +1 x6 +1 x7 >= 0 ;
-1 x14 -1 x6 -1 x7 >= -2 ;
+1 x14 +1 x6 -1 x7 >= 0 ;
+1 x15 -1 x7 +1 x8 >= 0 ;
-1 x15 +1 x7 +1 x8 >= 0 ;
-1 x15 -1 x7 -1 x8 >= -2 ;
+1 x15 +1 x7 -1 x8 >= 0 ;
+1 x16 +1 x17 +1 x18 +1 x19 +1 x20 +1 x21 +1 x22 +1 x23 = 1 ;
+1 x1 +1 x32 = 1 ;
+1 x16 -1 x32 = 0 ;
-1 x1 -1 x16 >= -1 ;
+1 x1 +1 x16 +1 x49 = 1 ;
-8 x1 -1 x76 -2 x77 -4 x78 >= -8 ;
-8 x16 -1 x76 -2 x77 -4 x78 >= -8 ;
-1 x32 +1 x33 >= 0 ;
+1 x2 +1 x33 >= 1 ;
-1 x2 +1 x32 -1 x33 >= -1 ;
+1 x17 +1 x32 -1 x33 = 0 ;
-1 x17 -1 x2 >= -1 ;
+1 x17 +1 x2 +1 x48 +1 x51 = 1 ;
-8 x2 -1 x79 -2 x80 -4 x81 >= -8 ;
-8 x17 -1 x79 -2 x80 -4 x81 >= -8 ;
-1 x33 +1 x34 >= 0 ;
+1 x3 +1 x34 >= 1 ;
-1 x3 +1 x33 -1 x34 >= -1 ;
+1 x18 +1 x33 -1 x34 = 0 ;
-1 x18 -1 x3 >= -1 ;
+1 x18 +1 x3 +1 x50 +1 x53 = 1 ;
-8 x3 -1 x82 -2 x83 -4 x84 >= -8 ;
-8 x18 -1 x82 -2 x83 -4 x84 >= -8 ;
-1 x34 +1 x35 >= 0 ;
+1 x35 +1 x4 >= 1 ;
+1 x34 -1 x35 -1 x4 >= -1 ;
+1 x19 +1 x34 -1 x35 = 0 ;
-1 x19 -1 x4 >= -1 ;
+1 x19 +1 x4 +1 x52 +1 x55 = 1 ;
-8 x4 -1 x85 -2 x86 -4 x87 >= -8 ;
-8 x19 -1 x85 -2 x86 -4 x87 >= -8 ;
-1 x35 +1 x36 >= 0 ;
+1 x36 +1 x5 >= 1 ;
+1 x35 -1 x36 -1 x5 >= -1 ;
+1 x20 +1 x35 -1 x36 = 0 ;
-1 x20 -1 x5 >= -1 ;
+1 x20 +1 x5 +1 x54 +1 x57 = 1 ;
-8 x5 -1 x88 -2 x89 -4 x90 >= -8 ;
-8 x20 -1 x88 -2 x89 -4 x90 >= -8 ;
-1 x36 +1 x37 >= 0 ;
+1 x37 +1 x6 >= 1 ;
+1 x36 -1 x37 -1 x6 >= -1 ;
+1 x21 +1 x36 -1 x37 = 0 ;
-1 x21 -1 x6 >= -1 ;
+1 x21 +1 x56 +1 x59 +1 x6 = 1 ;
-8 x6 -1 x91 -2 x92 -4 x93 >= -8 ;
-8 x21 -1 x91 -2 x92 -4 x93 >= -8 ;
-1 x37 +1 x38 >= 0 ;
+1 x38 +1 x7 >= 1 ;
+1 x37 -1 x38 -1 x7 >= -1 ;
+1 x22 +1 x37 -1 x38 = 0 ;
-1 x22 -1 x7 >= -1 ;
+1 x22 +1 x58 +1 x61 +1 x7 = 1 ;
-8 x7 -1 x94 -2 x95 -4 x96 >= -8 ;
-8 x22 -1 x94 -2 x95 -4 x96 >= -8 ;
-1 x38 +1 x39 >= 0 ;
+1 x39 +1 x8 >= 1 ;
+1 x38 -1 x39 -1 x8 >= -1 ;
+1 x23 +1 x38 -1 x39 = 0 ;
-1 x23 -1 x8 >= -1 ;
+1 x23 +1 x60 +1 x8 = 1 ;
-8 x8 -1 x97 -2 x98 -4 x99 >= -8 ;
-8 x23 -1 x97 -2 x98 -4 x99 >= -8 ;
-1 x1 -1 x48 >= -1 ;
-1 x2 -1 x48 >= -1 ;
-8 x48 -1 x76 -2 x77 -4 x78 +1 x79 +2 x80 +4 x81 >= -7 ;
-1 x2 -1 x49 >= -1 ;
-1 x1 -1 x49 >= -1 ;
-8 x49 +1 x76 +2 x77 +4 x78 -1 x79 -2 x80 -4 x81 >= -7 ;
-1 x2 -1 x50 >= -1 ;
-1 x3 -1 x50 >= -1 ;
-8 x50 -1 x79 -2 x80 -4 x81 +1 x82 +2 x83 +4 x84 >= -7 ;
-1 x3 -1 x51 >= -1 ;
-1 x2 -1 x51 >= -1 ;
-8 x51 +1 x79 +2 x80 +4 x81 -1 x82 -2 x83 -4 x84 >= -7 ;
-1 x3 -1 x52 >= -1 ;
-1 x4 -1 x52 >= -1 ;
-8 x52 -1 x82 -2 x83 -4 x84 +1 x85 +2 x86 +4 x87 >= -7 ;
-1 x4 -1 x53 >= -1 ;
-1 x3 -1 x53 >= -1 ;
-8 x53 +1 x82 +2 x83 +4 x84 -1 x85 -2 x86 -4 x87 >= -7 ;
-1 x4 -1 x54 >= -1 ;
-1 x5 -1 x54 >= -1 ;
-8 x54 -1 x85 -2 x86 -4 x87 +1 x88 +2 x89 +4 x90 >= -7 ;
-1 x5 -1 x55 >= -1 ;
-1 x4 -1 x55 >= -1 ;
-8 x55 +1 x85 +2 x86 +4 x87 -1 x88 -2 x89 -4 x90 >= -7 ;
-1 x5 -1 x56 >= -1 ;
-1 x56 -1 x6 >= -1 ;
-8 x56 -1 x88 -2 x89 -4 x90 +1 x91 +2 x92 +4 x93 >= -7 ;
-1 x57 -1 x6 >= -1 ;
-1 x5 -1 x57 >= -1 ;
-8 x57 +1 x88 +2 x89 +4 x90 -1 x91 -2 x92 -4 x93 >= -7 ;
-1 x58 -1 x6 >= -1 ;
-1 x58 -1 x7 >= -1 ;
-8 x58 -1 x91 -2 x92 -4 x93 +1 x94 +2 x95 +4 x96 >= -7 ;
-1 x59 -1 x7 >= -1 ;
-1 x59 -1 x6 >= -1 ;
-8 x59 +1 x91 +2 x92 +4 x93 -1 x94 -2 x95 -4 x96 >= -7 ;
-1 x60 -1 x7 >= -1 ;
-1 x60 -1 x8 >= -1 ;
-8 x60 -1 x94 -2 x95 -4 x96 +1 x97 +2 x98 +4 x99 >= -7 ;
-1 x61 -1 x8 >= -1 ;
-1 x61 -1 x7 >= -1 ;
-8 x61 +1 x94 +2 x95 +4 x96 -1 x97 -2 x98 -4 x99 >= -7 ;
+1 x24 +1 x25 +1 x26 +1 x27 +1 x28 +1 x29 +1 x30 +1 x31 = 1 ;
-1 x1 +1 x40 = 0 ;
+1 x24 -1 x40 = 0 ;
+1 x1 -1 x24 >= 0 ;
-1 x1 +1 x24 +1 x63 = 0 ;
+8 x1 -1 x100 -2 x101 -4 x102 >= 0 ;
-1 x100 -2 x101 -4 x102 -8 x24 >= -8 ;
-1 x40 +1 x41 >= 0 ;
-1 x2 +1 x41 >= 0 ;
+1 x2 +1 x40 -1 x41 >= 0 ;
+1 x25 +1 x40 -1 x41 = 0 ;
+1 x2 -1 x25 >= 0 ;
-1 x2 +1 x25 +1 x62 +1 x65 = 0 ;
-1 x103 -2 x104 -4 x105 +8 x2 >= 0 ;
-1 x103 -2 x104 -4 x105 -8 x25 >= -8 ;
-1 x41 +1 x42 >= 0 ;
-1 x3 +1 x42 >= 0 ;
+1 x3 +1 x41 -1 x42 >= 0 ;
+1 x26 +1 x41 -1 x42 = 0 ;
-1 x26 +1 x3 >= 0 ;
+1 x26 -1 x3 +1 x64 +1 x67 = 0 ;
-1 x106 -2 x107 -4 x108 +8 x3 >= 0 ;
-1 x106 -2 x107 -4 x108 -8 x26 >= -8 ;
-1 x42 +1 x43 >= 0 ;
-1 x4 +1 x43 >= 0 ;
+1 x4 +1 x42 -1 x43 >= 0 ;
+1 x27 +1 x42 -1 x43 = 0 ;
-1 x27 +1 x4 >= 0 ;
+1 x27 -1 x4 +1 x66 +1 x69 = 0 ;
-1 x109 -2 x110 -4 x111 +8 x4 >= 0 ;
-1 x109 -2 x110 -4 x111 -8 x27 >= -8 ;
-1 x43 +1 x44 >= 0 ;
+1 x44 -1 x5 >= 0 ;
+1 x43 -1 x44 +1 x5 >= 0 ;
+1 x28 +1 x43 -1 x44 = 0 ;
-1 x28 +1 x5 >= 0 ;
+1 x28 -1 x5 +1 x68 +1 x71 = 0 ;
-1 x112 -2 x113 -4 x114 +8 x5 >= 0 ;
-1 x112 -2 x113 -4 x114 -8 x28 >= -8 ;
-1 x44 +1 x45 >= 0 ;
+1 x45 -1 x6 >= 0 ;
+1 x44 -1 x45 +1 x6 >= 0 ;
+1 x29 +1 x44 -1 x45 = 0 ;
-1 x29 +1 x6 >= 0 ;
+1 x29 -1 x6 +1 x70 +1 x73 = 0 ;
-1 x115 -2 x116 -4 x117 +8 x6 >= 0 ;
-1 x115 -2 x116 -4 x117 -8 x29 >= -8 ;
-1 x45 +1 x46 >= 0 ;
+1 x46 -1 x7 >= 0 ;
+1 x45 -1 x46 +1 x7 >= 0 ;
+1 x30 +1 x45 -1 x46 = 0 ;
-1 x30 +1 x7 >= 0 ;
+1 x30 -1 x7 +1 x72 +1 x75 = 0 ;
-1 x118 -2 x119 -4 x120 +8 x7 >= 0 ;
-1 x118 -2 x119 -4 x120 -8 x30 >= -8 ;
-1 x46 +1 x47 >= 0 ;
+1 x47 -1 x8 >= 0 ;
+1 x46 -1 x47 +1 x8 >= 0 ;
+1 x31 +1 x46 -1 x47 = 0 ;
-1 x31 +1 x8 >= 0 ;
+1 x31 +1 x74 -1 x8 = 0 ;
-1 x121 -2 x122 -4 x123 +8 x8 >= 0 ;
-1 x121 -2 x122 -4 x123 -8 x31 >= -8 ;
+1 x1 -1 x62 >= 0 ;
+1 x2 -1 x62 >= 0 ;
-1 x100 -2 x101 -4 x102 +1 x103 +2 x104 +4 x105 -8 x62 >= -7 ;
+1 x2 -1 x63 >= 0 ;
+1 x1 -1 x63 >= 0 ;
+1 x100 +2 x101 +4 x102 -1 x103 -2 x104 -4 x105 -8 x63 >= -7 ;
+1 x2 -1 x64 >= 0 ;
+1 x3 -1 x64 >= 0 ;
-1 x103 -2 x104 -4 x105 +1 x106 +2 x107 +4 x108 -8 x64 >= -7 ;
+1 x3 -1 x65 >= 0 ;
+1 x2 -1 x65 >= 0 ;
+1 x103 +2 x104 +4 x105 -1 x106 -2 x107 -4 x108 -8 x65 >= -7 ;
+1 x3 -1 x66 >= 0 ;
+1 x4 -1 x66 >= 0 ;
-1 x106 -2 x107 -4 x108 +1 x109 +2 x110 +4 x111 -8 x66 >= -7 ;
+1 x4 -1 x67 >= 0 ;
+1 x3 -1 x67 >= 0 ;
+1 x106 +2 x107 +4 x108 -1 x109 -2 x110 -4 x111 -8 x67 >= -7 ;
+1 x4 -1 x68 >= 0 ;
+1 x5 -1 x68 >= 0 ;
-1 x109 -2 x110 -4 x111 +1 x112 +2 x113 +4 x114 -8 x68 >= -7 ;
+1 x5 -1 x69 >= 0 ;
+1 x4 -1 x69 >= 0 ;
+1 x109 +2 x110 +4 x111 -1 x112 -2 x113 -4 x114 -8 x69 >= -7 ;
+1 x5 -1 x70 >= 0 ;
+1 x6 -1 x70 >= 0 ;
-1 x112 -2 x113 -4 x114 +1 x115 +2 x116 +4 x117 -8 x70 >= -7 ;
+1 x6 -1 x71 >= 0 ;
+1 x5 -1 x71 >= 0 ;
+1 x112 +2 x113 +4 x114 -1 x115 -2 x116 -4 x117 -8 x71 >= -7 ;
+1 x6 -1 x72 >= 0 ;
+1 x7 -1 x72 >= 0 ;
-1 x115 -2 x116 -4 x117 +1 x118 +2 x119 +4 x120 -8 x72 >= -7 ;
+1 x7 -1 x73 >= 0 ;
+1 x6 -1 x73 >= 0 ;
+1 x115 +2 x116 +4 x117 -1 x118 -2 x119 -4 x120 -8 x73 >= -7 ;
+1 x7 -1 x74 >= 0 ;
-1 x74 +1 x8 >= 0 ;
-1 x118 -2 x119 -4 x120 +1 x121 +2 x122 +4 x123 -8 x74 >= -7 ;
-1 x75 +1 x8 >= 0 ;
+1 x7 -1 x75 >= 0 ;
+1 x118 +2 x119 +4 x120 -1 x121 -2 x122 -4 x123 -8 x75 >= -7 ;
-400 x1 -400 x2 -400 x3 -400 x4 -400 x5 -400 x6 -400 x7 -400 x8 >= -2000 ;
+400 x1 +400 x2 +400 x3 +400 x4 +400 x5 +400 x6 +400 x7 +400 x8 >= 1200 ;
-1 x10 -1 x11 -1 x12 -1 x13 -1 x14 -1 x15 -1 x9 >= 0 ;
